NAME : C-n3-k2_inst1
COMMENT : (Generated instance for RL, number of trucks: 2)
TYPE : CVRP
DIMENSION : 3
EDGE_WEIGHT_TYPE : EXPLICIT
EDGE_WEIGHT_FORMAT: LOWER_ROW
DISPLAY_DATA_TYPE: NO_DISPLAY
CAPACITY : 1118
EDGE_WEIGHT_SECTION
    78
    127    61
DEMAND_SECTION
1 54
2 190
3 0
DEPOT_SECTION
1
-1